detailed-output/inst-20-1489266180.dzn

A = 2;
T = 18;
X = 5;
Y = 5;
Z = 3;
building = array2d(0..4, 0..4, [0, 0, 0, 0, 0, 0, 0, 1, 0, 0, 0, 0, 1, 1, 0, 0, 1, 1, 1, 0, 0, 0, 0, 0, 0]);
